c --- [ banner ] -------------------------------------------------------------
c 
c CaDiCaL Radically Simplified CDCL SAT Solver
c Copyright (c) 2016-2021 A. Biere, M. Fleury, N. Froleyks
c 
c Version 1.5.2 9c38a080b32c28d805e8e6ca21849856b0cda605
c g++ (Ubuntu 7.5.0-3ubuntu1~18.04) 7.5.0 -Wall -Wextra -O3 -DNDEBUG
c Wed Feb 16 23:15:36 EST 2022 Linux fac-vanhoeve01 5.4.0-99-generic x86_64
c 
c --- [ limit ] --------------------------------------------------------------
c 
c setting time limit to 600 seconds real time (due to '-t 600')
c setting conflict limit to 1000000000 conflicts (due to '1000000000')
c 
c --- [ parsing input ] ------------------------------------------------------
c 
c reading DIMACS file from 'ddfwcnfs/r1000.5.col_234.cnf'
c opening file to read 'ddfwcnfs/r1000.5.col_234.cnf'
c found 'p cnf 234000 35431408' header
c parsed 35431408 clauses in 25.85 seconds process time
c closing file 'ddfwcnfs/r1000.5.col_234.cnf'
c after reading 604318885 bytes 576.3 MB
c 
c --- [ options ] ------------------------------------------------------------
c 
c all options are set to their default value
c 
c --- [ solving ] ------------------------------------------------------------
c 
c time measured in process time since initialization
c 
c  seconds    reductions  redundant   irredundant
c          MB     restarts       trail         variables
c            level   conflicts       glue            remaining
c 
c * 25.85 2880  0 0   0    0    0  0% 0 35300715 178751 76%
c { 25.92 2883  0 0   0    0    0  0% 0 35300715 178751 76%
c - 33.37 2888 227 1   0  300  218 72% 20 35241337 178751 76%
c } 34.09 2888 116 1   7 1000  747 48% 17 35241337 178751 76%
c [ 34.09 2888  0 1   7 1000  747  0% 0 35241337 178751 76%
c O 34.11 2888 77 1   7 1002  749 34% 2 35241337 178751 76%
c - 55.60 3695 151 2   8 2432 1737 44% 36 35241337 178751 76%
c ] 55.87 3695 167 2   8 3001 2197 46% 47 35241337 178751 76%
c { 55.87 3695 116 2   8 3001 2197 48% 17 35241337 178751 76%
c F 78.87 3697 116 2   8 3003 2199  2% 17 35241337 178751 76%
c p 115.08 3704 115 2 322 5000 3661 16% 27 35241337 178751 76%
c - 141.37 3704 109 3 461 5625 3022 17% 29 35241337 178751 76%
c # 142.21 3704 109 3 530 6004 3348 17% 30 35241337 178751 76%
c } 143.75 3704 104 3 747 7001 4089 17% 32 35241337 178751 76%
c [ 143.75 3704 167 3 747 7001 4089 60% 47 35241337 178751 76%
c - 163.09 3705 152 4 749 9883 4415 39% 55 35241337 178751 76%
c I 163.16 3705 153 4 749 10005 4525 39% 55 35241337 178751 76%
c ] 164.56 3705 278 4 752 15001 8589 26% 45 35241337 178751 76%
c { 164.56 3705 104 4 752 15001 8589 17% 32 35241337 178751 76%
c p 198.62 3705 104 4 753 15001 8599 17% 32 35241337 178751 76%
c 
c  seconds      reductions   redundant    irredundant
c           MB      restarts        trail          variables
c              level    conflicts       glue             remaining
c 
c B 206.54 3705 105 4 753 15009 8606 17% 32 35241337 178751 76%
c - 223.05 3705 106 5 770 15204 5652 17% 32 35241337 178751 76%
c s 237.45 3707 106 5 779 15252 5602 17% 33 35241337 178751 76%
c w 282.73 3708 106 5 779 15252 5600 17% 33 35241337 178751 76%
c e 314.55 4041 106 5 779 15252 5592 17% 33 17779453 119109 51%
c s 315.35 4041 106 5 779 15252 5565 17% 33 17779453 119109 51%
c ^ 321.16 4041 106 5 779 15252 5565 17% 33 17779453 119109 51%
c W 350.42 3508 92 5 1493 21010 9489 22% 34 17779453 119109 51%
c - 358.78 3509 91 6 1561 21589 6371 23% 34 17779453 119109 51%
c F 361.29 3509 91 6 1971 28011 11179 22% 33 17779453 119109 51%
c - 369.89 3509 90 7 2025 28414 7075 22% 33 17779453 119109 51%
c p 386.22 3509 87 7 2314 30001 7968 21% 33 17779453 119109 51%
c } 390.81 3509 84 7 2386 31002 8394 21% 33 17779453 119109 51%
c [ 390.81 3509 278 7 2386 31002 8394 38% 45 17779453 119109 51%
c B 392.65 3509 197 7 2389 36013 10919 30% 43 17779453 119109 51%
c - 401.18 3508 205 8 2389 36215 6016 30% 43 17779453 119109 51%
c s 405.19 3508 254 8 2393 44142 12152 35% 61 17779453 119109 51%
c w 429.32 3508 254 8 2393 44142 12148 35% 61 17779453 119109 51%
c s 441.92 3508 254 8 2393 44142 12136 35% 61 17779453 119109 51%
c ^ 448.39 3508 254 8 2393 44142 12136 35% 61 17779453 119109 51%
c 
c  seconds      reductions    redundant    irredundant
c           MB      restarts         trail          variables
c              level     conflicts       glue             remaining
c 
c - 458.52 3514 256 9 2393 44991 8917 36% 64 17779453 119109 51%
c W 491.75 3514 257 9 2393 45017 8942 36% 65 17779453 119109 51%
c p 517.00 3514 270 9 2394 50004 13061 40% 72 17779453 119109 51%
c - 536.21 3513 248 10 2395 54741 10020 39% 76 17779453 119109 51%
c O 536.35 3513 247 10 2395 55019 10205 39% 76 17779453 119109 51%
c ] 540.74 3513 222 10 2401 63006 16203 39% 75 17779453 119109 51%
c { 540.74 3513 84 10 2401 63006 16203 21% 33 17779453 119109 51%
c - 550.98 3511 85 11 2479 65465 11313 22% 33 17779453 119109 51%
c B 551.11 3511 85 11 2479 66021 11800 22% 33 17779453 119109 51%
c p 575.37 3511 88 11 3357 75004 17968 22% 32 17779453 119109 51%
c - 595.44 3510 88 12 3587 77166 11784 22% 32 17779453 119109 51%
c } 607.24 3510 87 12 3808 78022 12210 22% 33 17779453 119109 51%
c ? 607.24 3510 87 12 3808 78022 12210 22% 33 17779453 119109 51%
c 
c --- [ result ] -------------------------------------------------------------
c 
c UNKNOWN
c 
c --- [ run-time profiling ] -------------------------------------------------
c 
c process time taken by individual solving procedures
c (percentage relative to process time for solving)
c 
c       309.20   53.18% search
c       272.19   46.82% simplify
c       153.40   26.38% unstable
c        99.09   17.04% stable
c        73.47   12.64% ternary
c        56.64    9.74% walk
c        54.15    9.31% vivify
c        41.90    7.21% elim
c        25.85    4.45% parse
c        16.14    2.78% subsume
c         6.87    1.18% probe
c         0.07    0.01% lucky
c   =================================
c       581.39   95.74% solve
c 
c last line shows process time for solving
c (percentage relative to total process time)
c 
c --- [ statistics ] ---------------------------------------------------------
c 
c chronological:             20416        26.17 %  of conflicts
c conflicts:                 78022       134.20    per second
c decisions:                270173       464.70    per second
c eliminated:                59642        25.49 %  of all variables
c fixed:                     55249        23.61 %  of all variables
c learned:                   76956        98.63 %  per conflict
c learned_lits:           15533444       100.00 %  learned literals
c minimized:                     0         0.00 %  learned literals
c shrunken:                7338596        47.24 %  learned literals
c minishrunken:             436701         2.81 %  learned literals
c propagations:          126211704         0.22 M  per second
c reduced:                   43933        56.31 %  per conflict
c rephased:                     12      6501.83    interval
c restarts:                   3808        20.49    interval
c stabilizing:                   3        53.84 %  of conflicts
c subsumed:                  20801         0.03 %  of all clauses
c strengthened:               1370         0.00 %  of all clauses
c vivified:                     13         0.00 %  of all clauses
c walked:                        3     26007.33    interval
c weakened:               17462469         2.00    average size
c 
c seconds are measured in process time for solving
c 
c --- [ resources ] ----------------------------------------------------------
c 
c total process time since initialization:       607.24    seconds
c total real time since initialization:          607.30    seconds
c maximum resident set size of process:         4782.44    MB
c 
c --- [ shutting down ] ------------------------------------------------------
c 
c exit 0
